*SENSE:Minimize
NAME          MODEL
ROWS
 N  OBJ
 E  C0000000
 E  C0000001
 E  C0000002
 E  C0000003
 E  C0000004
 E  C0000005
 E  C0000006
 E  C0000007
 E  C0000008
 E  C0000009
 E  C0000010
 E  C0000011
 E  C0000012
 E  C0000013
 E  C0000014
 E  C0000015
COLUMNS
    MARK      'MARKER'                 'INTORG'
    X0000000  C0000008   1.000000000000e+00
    X0000000  C0000009   1.000000000000e+00
    MARK      'MARKER'                 'INTEND'
    MARK      'MARKER'                 'INTORG'
    X0000001  C0000008   1.000000000000e+00
    X0000001  C0000010   1.000000000000e+00
    MARK      'MARKER'                 'INTEND'
    MARK      'MARKER'                 'INTORG'
    X0000002  C0000008   1.000000000000e+00
    X0000002  C0000011   1.000000000000e+00
    MARK      'MARKER'                 'INTEND'
    MARK      'MARKER'                 'INTORG'
    X0000003  C0000008   1.000000000000e+00
    X0000003  C0000012   1.000000000000e+00
    MARK      'MARKER'                 'INTEND'
    MARK      'MARKER'                 'INTORG'
    X0000004  C0000008   1.000000000000e+00
    X0000004  C0000013   1.000000000000e+00
    MARK      'MARKER'                 'INTEND'
    MARK      'MARKER'                 'INTORG'
    X0000005  C0000008   1.000000000000e+00
    X0000005  C0000014   1.000000000000e+00
    MARK      'MARKER'                 'INTEND'
    MARK      'MARKER'                 'INTORG'
    X0000006  C0000008   1.000000000000e+00
    X0000006  C0000015   1.000000000000e+00
    MARK      'MARKER'                 'INTEND'
    MARK      'MARKER'                 'INTORG'
    X0000007  C0000009   1.000000000000e+00
    X0000007  C0000010   1.000000000000e+00
    MARK      'MARKER'                 'INTEND'
    MARK      'MARKER'                 'INTORG'
    X0000008  C0000009   1.000000000000e+00
    X0000008  C0000011   1.000000000000e+00
    MARK      'MARKER'                 'INTEND'
    MARK      'MARKER'                 'INTORG'
    X0000009  C0000009   1.000000000000e+00
    X0000009  C0000012   1.000000000000e+00
    MARK      'MARKER'                 'INTEND'
    MARK      'MARKER'                 'INTORG'
    X0000010  C0000009   1.000000000000e+00
    X0000010  C0000013   1.000000000000e+00
    MARK      'MARKER'                 'INTEND'
    MARK      'MARKER'                 'INTORG'
    X0000011  C0000009   1.000000000000e+00
    X0000011  C0000014   1.000000000000e+00
    MARK      'MARKER'                 'INTEND'
    MARK      'MARKER'                 'INTORG'
    X0000012  C0000009   1.000000000000e+00
    X0000012  C0000015   1.000000000000e+00
    MARK      'MARKER'                 'INTEND'
    MARK      'MARKER'                 'INTORG'
    X0000013  C0000010   1.000000000000e+00
    X0000013  C0000011   1.000000000000e+00
    MARK      'MARKER'                 'INTEND'
    MARK      'MARKER'                 'INTORG'
    X0000014  C0000010   1.000000000000e+00
    X0000014  C0000012   1.000000000000e+00
    MARK      'MARKER'                 'INTEND'
    MARK      'MARKER'                 'INTORG'
    X0000015  C0000010   1.000000000000e+00
    X0000015  C0000013   1.000000000000e+00
    MARK      'MARKER'                 'INTEND'
    MARK      'MARKER'                 'INTORG'
    X0000016  C0000010   1.000000000000e+00
    X0000016  C0000014   1.000000000000e+00
    MARK      'MARKER'                 'INTEND'
    MARK      'MARKER'                 'INTORG'
    X0000017  C0000010   1.000000000000e+00
    X0000017  C0000015   1.000000000000e+00
    MARK      'MARKER'                 'INTEND'
    MARK      'MARKER'                 'INTORG'
    X0000018  C0000011   1.000000000000e+00
    X0000018  C0000012   1.000000000000e+00
    MARK      'MARKER'                 'INTEND'
    MARK      'MARKER'                 'INTORG'
    X0000019  C0000011   1.000000000000e+00
    X0000019  C0000013   1.000000000000e+00
    MARK      'MARKER'                 'INTEND'
    MARK      'MARKER'                 'INTORG'
    X0000020  C0000011   1.000000000000e+00
    X0000020  C0000014   1.000000000000e+00
    MARK      'MARKER'                 'INTEND'
    MARK      'MARKER'                 'INTORG'
    X0000021  C0000011   1.000000000000e+00
    X0000021  C0000015   1.000000000000e+00
    MARK      'MARKER'                 'INTEND'
    MARK      'MARKER'                 'INTORG'
    X0000022  C0000012   1.000000000000e+00
    X0000022  C0000013   1.000000000000e+00
    MARK      'MARKER'                 'INTEND'
    MARK      'MARKER'                 'INTORG'
    X0000023  C0000012   1.000000000000e+00
    X0000023  C0000014   1.000000000000e+00
    MARK      'MARKER'                 'INTEND'
    MARK      'MARKER'                 'INTORG'
    X0000024  C0000012   1.000000000000e+00
    X0000024  C0000015   1.000000000000e+00
    MARK      'MARKER'                 'INTEND'
    MARK      'MARKER'                 'INTORG'
    X0000025  C0000013   1.000000000000e+00
    X0000025  C0000014   1.000000000000e+00
    MARK      'MARKER'                 'INTEND'
    MARK      'MARKER'                 'INTORG'
    X0000026  C0000013   1.000000000000e+00
    X0000026  C0000015   1.000000000000e+00
    MARK      'MARKER'                 'INTEND'
    MARK      'MARKER'                 'INTORG'
    X0000027  C0000014   1.000000000000e+00
    X0000027  C0000015   1.000000000000e+00
    MARK      'MARKER'                 'INTEND'
    MARK      'MARKER'                 'INTORG'
    X0000028  C0000000   1.000000000000e+00
    X0000028  C0000008  -1.000000000000e+00
    MARK      'MARKER'                 'INTEND'
    MARK      'MARKER'                 'INTORG'
    X0000029  C0000001   1.000000000000e+00
    X0000029  C0000009  -1.000000000000e+00
    MARK      'MARKER'                 'INTEND'
    MARK      'MARKER'                 'INTORG'
    X0000030  C0000002   1.000000000000e+00
    X0000030  C0000010  -1.000000000000e+00
    MARK      'MARKER'                 'INTEND'
    MARK      'MARKER'                 'INTORG'
    X0000031  C0000003   1.000000000000e+00
    X0000031  C0000011  -1.000000000000e+00
    MARK      'MARKER'                 'INTEND'
    MARK      'MARKER'                 'INTORG'
    X0000032  C0000004   1.000000000000e+00
    X0000032  C0000012  -1.000000000000e+00
    MARK      'MARKER'                 'INTEND'
    MARK      'MARKER'                 'INTORG'
    X0000033  C0000005   1.000000000000e+00
    X0000033  C0000013  -1.000000000000e+00
    MARK      'MARKER'                 'INTEND'
    MARK      'MARKER'                 'INTORG'
    X0000034  C0000006   1.000000000000e+00
    X0000034  C0000014  -1.000000000000e+00
    MARK      'MARKER'                 'INTEND'
    MARK      'MARKER'                 'INTORG'
    X0000035  C0000007   1.000000000000e+00
    X0000035  C0000015  -1.000000000000e+00
    MARK      'MARKER'                 'INTEND'
    X0000036  OBJ        1.000000000000e+00
RHS
    RHS       C0000000   3.000000000000e+00
    RHS       C0000001   3.000000000000e+00
    RHS       C0000002   3.000000000000e+00
    RHS       C0000003   3.000000000000e+00
    RHS       C0000004   4.000000000000e+00
    RHS       C0000005   4.000000000000e+00
    RHS       C0000006   5.000000000000e+00
    RHS       C0000007   7.000000000000e+00
    RHS       C0000008   0.000000000000e+00
    RHS       C0000009   0.000000000000e+00
    RHS       C0000010   0.000000000000e+00
    RHS       C0000011   0.000000000000e+00
    RHS       C0000012   0.000000000000e+00
    RHS       C0000013   0.000000000000e+00
    RHS       C0000014   0.000000000000e+00
    RHS       C0000015   0.000000000000e+00
BOUNDS
 BV BND       X0000000
 BV BND       X0000001
 BV BND       X0000002
 BV BND       X0000003
 BV BND       X0000004
 BV BND       X0000005
 BV BND       X0000006
 BV BND       X0000007
 BV BND       X0000008
 BV BND       X0000009
 BV BND       X0000010
 BV BND       X0000011
 BV BND       X0000012
 BV BND       X0000013
 BV BND       X0000014
 BV BND       X0000015
 BV BND       X0000016
 BV BND       X0000017
 BV BND       X0000018
 BV BND       X0000019
 BV BND       X0000020
 BV BND       X0000021
 BV BND       X0000022
 BV BND       X0000023
 BV BND       X0000024
 BV BND       X0000025
 BV BND       X0000026
 BV BND       X0000027
 LO BND       X0000028   1.000000000000e+00
 UP BND       X0000028   7.000000000000e+00
 LO BND       X0000029   1.000000000000e+00
 UP BND       X0000029   7.000000000000e+00
 LO BND       X0000030   1.000000000000e+00
 UP BND       X0000030   7.000000000000e+00
 LO BND       X0000031   1.000000000000e+00
 UP BND       X0000031   7.000000000000e+00
 LO BND       X0000032   1.000000000000e+00
 UP BND       X0000032   7.000000000000e+00
 LO BND       X0000033   1.000000000000e+00
 UP BND       X0000033   7.000000000000e+00
 LO BND       X0000034   1.000000000000e+00
 UP BND       X0000034   7.000000000000e+00
 LO BND       X0000035   1.000000000000e+00
 UP BND       X0000035   7.000000000000e+00
 FX BND       X0000036   0.000000000000e+00
ENDATA
